\ This file has been generated by DOcplex
\ ENCODING=ISO-8859-1
\Problem name: Qrandom17742_6.lp

Minimize
 obj: - 1165020 x0 - 582510 x1 - 291255 x2 - 1164968 x3 - 582484 x4 - 291242 x5
      + [ 668608 x0^2 + 668608 x0*x1 + 334304 x0*x2 + 1333248 x0*x3
      + 666624 x0*x4 + 333312 x0*x5 + 167152 x1^2 + 167152 x1*x2 + 666624 x1*x3
      + 333312 x1*x4 + 166656 x1*x5 + 41788 x2^2 + 333312 x2*x3 + 166656 x2*x4
      + 83328 x2*x5 + 674464 x3^2 + 674464 x3*x4 + 337232 x3*x5 + 168616 x4^2
      + 168616 x4*x5 + 42154 x5^2 ]/2 + 1020817
Subject To

Bounds
 0 <= x0 <= 1
 0 <= x1 <= 1
 0 <= x2 <= 1
 0 <= x3 <= 1
 0 <= x4 <= 1
 0 <= x5 <= 1

Binaries
 x0 x1 x2 x3 x4 x5
End
